c nIsolatedPIs 48
c maxPI 208
p cnf 729 1564
c gate 209 73 177 0
73 -209 0
177 -209 0
-73 -177 209 0
c gate 210 74 178 0
74 -210 0
178 -210 0
-74 -178 210 0
c gate 211 -209 -210 0
-209 -211 0
-210 -211 0
209 210 211 0
c gate 212 69 173 0
69 -212 0
173 -212 0
-69 -173 212 0
c gate 213 70 174 0
70 -213 0
174 -213 0
-70 -174 213 0
c gate 214 -212 -213 0
-212 -214 0
-213 -214 0
212 213 214 0
c gate 215 -69 -173 0
-69 -215 0
-173 -215 0
69 173 215 0
c gate 216 -68 -172 0
-68 -216 0
-172 -216 0
68 172 216 0
c gate 217 -215 -216 0
-215 -217 0
-216 -217 0
215 216 217 0
c gate 218 -67 -171 0
-67 -218 0
-171 -218 0
67 171 218 0
c gate 219 -66 -170 0
-66 -219 0
-170 -219 0
66 170 219 0
c gate 220 -218 -219 0
-218 -220 0
-219 -220 0
218 219 220 0
c gate 221 66 170 0
66 -221 0
170 -221 0
-66 -170 221 0
c gate 222 65 169 0
65 -222 0
169 -222 0
-65 -169 222 0
c gate 223 -221 -222 0
-221 -223 0
-222 -223 0
221 222 223 0
c gate 224 220 -223 0
220 -224 0
-223 -224 0
-220 223 224 0
c gate 225 68 172 0
68 -225 0
172 -225 0
-68 -172 225 0
c gate 226 67 171 0
67 -226 0
171 -226 0
-67 -171 226 0
c gate 227 -225 -226 0
-225 -227 0
-226 -227 0
225 226 227 0
c gate 228 -224 227 0
-224 -228 0
227 -228 0
224 -227 228 0
c gate 229 217 -228 0
217 -229 0
-228 -229 0
-217 228 229 0
c gate 230 214 -229 0
214 -230 0
-229 -230 0
-214 229 230 0
c gate 231 71 175 0
71 -231 0
175 -231 0
-71 -175 231 0
c gate 232 -71 -175 0
-71 -232 0
-175 -232 0
71 175 232 0
c gate 233 -70 -174 0
-70 -233 0
-174 -233 0
70 174 233 0
c gate 234 -232 -233 0
-232 -234 0
-233 -234 0
232 233 234 0
c gate 235 -231 234 0
-231 -235 0
234 -235 0
231 -234 235 0
c gate 236 -230 235 0
-230 -236 0
235 -236 0
230 -235 236 0
c gate 237 72 176 0
72 -237 0
176 -237 0
-72 -176 237 0
c gate 238 -231 -237 0
-231 -238 0
-237 -238 0
231 237 238 0
c gate 239 -236 238 0
-236 -239 0
238 -239 0
236 -238 239 0
c gate 240 -72 -176 0
-72 -240 0
-176 -240 0
72 176 240 0
c gate 241 -73 -177 0
-73 -241 0
-177 -241 0
73 177 241 0
c gate 242 -240 -241 0
-240 -242 0
-241 -242 0
240 241 242 0
c gate 243 -239 242 0
-239 -243 0
242 -243 0
239 -242 243 0
c gate 244 211 -243 0
211 -244 0
-243 -244 0
-211 243 244 0
c gate 245 -75 -179 0
-75 -245 0
-179 -245 0
75 179 245 0
c gate 246 -74 -178 0
-74 -246 0
-178 -246 0
74 178 246 0
c gate 247 -76 -180 0
-76 -247 0
-180 -247 0
76 180 247 0
c gate 248 -246 -247 0
-246 -248 0
-247 -248 0
246 247 248 0
c gate 249 -245 248 0
-245 -249 0
248 -249 0
245 -248 249 0
c gate 250 -244 249 0
-244 -250 0
249 -250 0
244 -249 250 0
c gate 251 76 180 0
76 -251 0
180 -251 0
-76 -180 251 0
c gate 252 75 179 0
75 -252 0
179 -252 0
-75 -179 252 0
c gate 253 -247 252 0
-247 -253 0
252 -253 0
247 -252 253 0
c gate 254 -251 -253 0
-251 -254 0
-253 -254 0
251 253 254 0
c gate 255 -250 254 0
-250 -255 0
254 -255 0
250 -254 255 0
c gate 256 78 182 0
78 -256 0
182 -256 0
-78 -182 256 0
c gate 257 77 181 0
77 -257 0
181 -257 0
-77 -181 257 0
c gate 258 -256 -257 0
-256 -258 0
-257 -258 0
256 257 258 0
c gate 259 -77 -181 0
-77 -259 0
-181 -259 0
77 181 259 0
c gate 260 -80 -184 0
-80 -260 0
-184 -260 0
80 184 260 0
c gate 261 -259 -260 0
-259 -261 0
-260 -261 0
259 260 261 0
c gate 262 258 261 0
258 -262 0
261 -262 0
-258 -261 262 0
c gate 263 -78 -182 0
-78 -263 0
-182 -263 0
78 182 263 0
c gate 264 -79 -183 0
-79 -264 0
-183 -264 0
79 183 264 0
c gate 265 -263 -264 0
-263 -265 0
-264 -265 0
263 264 265 0
c gate 266 79 183 0
79 -266 0
183 -266 0
-79 -183 266 0
c gate 267 80 184 0
80 -267 0
184 -267 0
-80 -184 267 0
c gate 268 -266 -267 0
-266 -268 0
-267 -268 0
266 267 268 0
c gate 269 265 268 0
265 -269 0
268 -269 0
-265 -268 269 0
c gate 270 262 269 0
262 -270 0
269 -270 0
-262 -269 270 0
c gate 271 -255 270 0
-255 -271 0
270 -271 0
255 -270 271 0
c gate 272 -258 265 0
-258 -272 0
265 -272 0
258 -265 272 0
c gate 273 268 -272 0
268 -273 0
-272 -273 0
-268 272 273 0
c gate 274 -260 -273 0
-260 -274 0
-273 -274 0
260 273 274 0
c gate 275 -271 -274 0
-271 -275 0
-274 -275 0
271 274 275 0
c gate 276 84 188 0
84 -276 0
188 -276 0
-84 -188 276 0
c gate 277 -84 -188 0
-84 -277 0
-188 -277 0
84 188 277 0
c gate 278 83 -277 0
83 -278 0
-277 -278 0
-83 277 278 0
c gate 279 187 278 0
187 -279 0
278 -279 0
-187 -278 279 0
c gate 280 -276 -279 0
-276 -280 0
-279 -280 0
276 279 280 0
c gate 281 -86 -190 0
-86 -281 0
-190 -281 0
86 190 281 0
c gate 282 -87 -191 0
-87 -282 0
-191 -282 0
87 191 282 0
c gate 283 -281 -282 0
-281 -283 0
-282 -283 0
281 282 283 0
c gate 284 82 186 0
82 -284 0
186 -284 0
-82 -186 284 0
c gate 285 81 185 0
81 -285 0
185 -285 0
-81 -185 285 0
c gate 286 -284 -285 0
-284 -286 0
-285 -286 0
284 285 286 0
c gate 287 283 286 0
283 -287 0
286 -287 0
-283 -286 287 0
c gate 288 87 191 0
87 -288 0
191 -288 0
-87 -191 288 0
c gate 289 88 192 0
88 -289 0
192 -289 0
-88 -192 289 0
c gate 290 -288 -289 0
-288 -290 0
-289 -290 0
288 289 290 0
c gate 291 86 190 0
86 -291 0
190 -291 0
-86 -190 291 0
c gate 292 85 189 0
85 -292 0
189 -292 0
-85 -189 292 0
c gate 293 -291 -292 0
-291 -293 0
-292 -293 0
291 292 293 0
c gate 294 290 293 0
290 -294 0
293 -294 0
-290 -293 294 0
c gate 295 287 294 0
287 -295 0
294 -295 0
-287 -294 295 0
c gate 296 187 -277 0
187 -296 0
-277 -296 0
-187 277 296 0
c gate 297 -278 -296 0
-278 -297 0
-296 -297 0
278 296 297 0
c gate 298 -82 -186 0
-82 -298 0
-186 -298 0
82 186 298 0
c gate 299 -85 -189 0
-85 -299 0
-189 -299 0
85 189 299 0
c gate 300 -298 -299 0
-298 -300 0
-299 -300 0
298 299 300 0
c gate 301 -88 -192 0
-88 -301 0
-192 -301 0
88 192 301 0
c gate 302 -81 -185 0
-81 -302 0
-185 -302 0
81 185 302 0
c gate 303 -301 -302 0
-301 -303 0
-302 -303 0
301 302 303 0
c gate 304 300 303 0
300 -304 0
303 -304 0
-300 -303 304 0
c gate 305 -297 304 0
-297 -305 0
304 -305 0
297 -304 305 0
c gate 306 295 305 0
295 -306 0
305 -306 0
-295 -305 306 0
c gate 307 280 306 0
280 -307 0
306 -307 0
-280 -306 307 0
c gate 308 -275 307 0
-275 -308 0
307 -308 0
275 -307 308 0
c gate 309 -286 -298 0
-286 -309 0
-298 -309 0
286 298 309 0
c gate 310 -297 309 0
-297 -310 0
309 -310 0
297 -309 310 0
c gate 311 280 -310 0
280 -311 0
-310 -311 0
-280 310 311 0
c gate 312 -299 -311 0
-299 -312 0
-311 -312 0
299 311 312 0
c gate 313 293 -312 0
293 -313 0
-312 -313 0
-293 312 313 0
c gate 314 283 -313 0
283 -314 0
-313 -314 0
-283 313 314 0
c gate 315 290 -314 0
290 -315 0
-314 -315 0
-290 314 315 0
c gate 316 -301 -315 0
-301 -316 0
-315 -316 0
301 315 316 0
c gate 317 -308 -316 0
-308 -317 0
-316 -317 0
308 316 317 0
c gate 318 92 196 0
92 -318 0
196 -318 0
-92 -196 318 0
c gate 319 -92 -196 0
-92 -319 0
-196 -319 0
92 196 319 0
c gate 320 91 -319 0
91 -320 0
-319 -320 0
-91 319 320 0
c gate 321 195 320 0
195 -321 0
320 -321 0
-195 -320 321 0
c gate 322 -318 -321 0
-318 -322 0
-321 -322 0
318 321 322 0
c gate 323 -94 -198 0
-94 -323 0
-198 -323 0
94 198 323 0
c gate 324 -95 -199 0
-95 -324 0
-199 -324 0
95 199 324 0
c gate 325 -323 -324 0
-323 -325 0
-324 -325 0
323 324 325 0
c gate 326 89 193 0
89 -326 0
193 -326 0
-89 -193 326 0
c gate 327 90 194 0
90 -327 0
194 -327 0
-90 -194 327 0
c gate 328 -326 -327 0
-326 -328 0
-327 -328 0
326 327 328 0
c gate 329 325 328 0
325 -329 0
328 -329 0
-325 -328 329 0
c gate 330 96 200 0
96 -330 0
200 -330 0
-96 -200 330 0
c gate 331 95 199 0
95 -331 0
199 -331 0
-95 -199 331 0
c gate 332 -330 -331 0
-330 -332 0
-331 -332 0
330 331 332 0
c gate 333 94 198 0
94 -333 0
198 -333 0
-94 -198 333 0
c gate 334 93 197 0
93 -334 0
197 -334 0
-93 -197 334 0
c gate 335 -333 -334 0
-333 -335 0
-334 -335 0
333 334 335 0
c gate 336 332 335 0
332 -336 0
335 -336 0
-332 -335 336 0
c gate 337 329 336 0
329 -337 0
336 -337 0
-329 -336 337 0
c gate 338 195 -319 0
195 -338 0
-319 -338 0
-195 319 338 0
c gate 339 -320 -338 0
-320 -339 0
-338 -339 0
320 338 339 0
c gate 340 -90 -194 0
-90 -340 0
-194 -340 0
90 194 340 0
c gate 341 -93 -197 0
-93 -341 0
-197 -341 0
93 197 341 0
c gate 342 -340 -341 0
-340 -342 0
-341 -342 0
340 341 342 0
c gate 343 -96 -200 0
-96 -343 0
-200 -343 0
96 200 343 0
c gate 344 -89 -193 0
-89 -344 0
-193 -344 0
89 193 344 0
c gate 345 -343 -344 0
-343 -345 0
-344 -345 0
343 344 345 0
c gate 346 342 345 0
342 -346 0
345 -346 0
-342 -345 346 0
c gate 347 -339 346 0
-339 -347 0
346 -347 0
339 -346 347 0
c gate 348 337 347 0
337 -348 0
347 -348 0
-337 -347 348 0
c gate 349 322 348 0
322 -349 0
348 -349 0
-322 -348 349 0
c gate 350 -317 349 0
-317 -350 0
349 -350 0
317 -349 350 0
c gate 351 -328 -340 0
-328 -351 0
-340 -351 0
328 340 351 0
c gate 352 -339 351 0
-339 -352 0
351 -352 0
339 -351 352 0
c gate 353 322 -352 0
322 -353 0
-352 -353 0
-322 352 353 0
c gate 354 -341 -353 0
-341 -354 0
-353 -354 0
341 353 354 0
c gate 355 335 -354 0
335 -355 0
-354 -355 0
-335 354 355 0
c gate 356 325 -355 0
325 -356 0
-355 -356 0
-325 355 356 0
c gate 357 332 -356 0
332 -357 0
-356 -357 0
-332 356 357 0
c gate 358 -343 -357 0
-343 -358 0
-357 -358 0
343 357 358 0
c gate 359 60 164 0
60 -359 0
164 -359 0
-60 -164 359 0
c gate 360 -60 -164 0
-60 -360 0
-164 -360 0
60 164 360 0
c gate 361 59 163 0
59 -361 0
163 -361 0
-59 -163 361 0
c gate 362 -360 361 0
-360 -362 0
361 -362 0
360 -361 362 0
c gate 363 -359 -362 0
-359 -363 0
-362 -363 0
359 362 363 0
c gate 364 58 162 0
58 -364 0
162 -364 0
-58 -162 364 0
c gate 365 57 161 0
57 -365 0
161 -365 0
-57 -161 365 0
c gate 366 -364 -365 0
-364 -366 0
-365 -366 0
364 365 366 0
c gate 367 -58 -162 0
-58 -367 0
-162 -367 0
58 162 367 0
c gate 368 -59 -163 0
-59 -368 0
-163 -368 0
59 163 368 0
c gate 369 -360 -368 0
-360 -369 0
-368 -369 0
360 368 369 0
c gate 370 -367 369 0
-367 -370 0
369 -370 0
367 -369 370 0
c gate 371 363 370 0
363 -371 0
370 -371 0
-363 -370 371 0
c gate 372 -366 371 0
-366 -372 0
371 -372 0
366 -371 372 0
c gate 373 363 -372 0
363 -373 0
-372 -373 0
-363 372 373 0
c gate 374 -62 -166 0
-62 -374 0
-166 -374 0
62 166 374 0
c gate 375 -63 -167 0
-63 -375 0
-167 -375 0
63 167 375 0
c gate 376 -374 -375 0
-374 -376 0
-375 -376 0
374 375 376 0
c gate 377 63 167 0
63 -377 0
167 -377 0
-63 -167 377 0
c gate 378 64 168 0
64 -378 0
168 -378 0
-64 -168 378 0
c gate 379 -377 -378 0
-377 -379 0
-378 -379 0
377 378 379 0
c gate 380 -64 -168 0
-64 -380 0
-168 -380 0
64 168 380 0
c gate 381 379 -380 0
379 -381 0
-380 -381 0
-379 380 381 0
c gate 382 376 381 0
376 -382 0
381 -382 0
-376 -381 382 0
c gate 383 61 165 0
61 -383 0
165 -383 0
-61 -165 383 0
c gate 384 62 166 0
62 -384 0
166 -384 0
-62 -166 384 0
c gate 385 -383 -384 0
-383 -385 0
-384 -385 0
383 384 385 0
c gate 386 -61 -165 0
-61 -386 0
-165 -386 0
61 165 386 0
c gate 387 385 -386 0
385 -387 0
-386 -387 0
-385 386 387 0
c gate 388 382 387 0
382 -388 0
387 -388 0
-382 -387 388 0
c gate 389 -373 388 0
-373 -389 0
388 -389 0
373 -388 389 0
c gate 390 376 -385 0
376 -390 0
-385 -390 0
-376 385 390 0
c gate 391 379 -390 0
379 -391 0
-390 -391 0
-379 390 391 0
c gate 392 -380 -391 0
-380 -392 0
-391 -392 0
380 391 392 0
c gate 393 -389 -392 0
-389 -393 0
-392 -393 0
389 392 393 0
c gate 394 -56 -160 0
-56 -394 0
-160 -394 0
56 160 394 0
c gate 395 56 160 0
56 -395 0
160 -395 0
-56 -160 395 0
c gate 396 55 159 0
55 -396 0
159 -396 0
-55 -159 396 0
c gate 397 -395 -396 0
-395 -397 0
-396 -397 0
395 396 397 0
c gate 398 -55 -159 0
-55 -398 0
-159 -398 0
55 159 398 0
c gate 399 -54 -158 0
-54 -399 0
-158 -399 0
54 158 399 0
c gate 400 -398 -399 0
-398 -400 0
-399 -400 0
398 399 400 0
c gate 401 54 158 0
54 -401 0
158 -401 0
-54 -158 401 0
c gate 402 53 157 0
53 -402 0
157 -402 0
-53 -157 402 0
c gate 403 -401 -402 0
-401 -403 0
-402 -403 0
401 402 403 0
c gate 404 -53 -157 0
-53 -404 0
-157 -404 0
53 157 404 0
c gate 405 49 153 0
49 -405 0
153 -405 0
-49 -153 405 0
c gate 406 50 154 0
50 -406 0
154 -406 0
-50 -154 406 0
c gate 407 -405 -406 0
-405 -407 0
-406 -407 0
405 406 407 0
c gate 408 -51 -155 0
-51 -408 0
-155 -408 0
51 155 408 0
c gate 409 -50 -154 0
-50 -409 0
-154 -409 0
50 154 409 0
c gate 410 -52 -156 0
-52 -410 0
-156 -410 0
52 156 410 0
c gate 411 -409 -410 0
-409 -411 0
-410 -411 0
409 410 411 0
c gate 412 -408 411 0
-408 -412 0
411 -412 0
408 -411 412 0
c gate 413 -407 412 0
-407 -413 0
412 -413 0
407 -412 413 0
c gate 414 52 156 0
52 -414 0
156 -414 0
-52 -156 414 0
c gate 415 51 155 0
51 -415 0
155 -415 0
-51 -155 415 0
c gate 416 -410 415 0
-410 -416 0
415 -416 0
410 -415 416 0
c gate 417 -414 -416 0
-414 -417 0
-416 -417 0
414 416 417 0
c gate 418 -413 417 0
-413 -418 0
417 -418 0
413 -417 418 0
c gate 419 -404 -418 0
-404 -419 0
-418 -419 0
404 418 419 0
c gate 420 403 -419 0
403 -420 0
-419 -420 0
-403 419 420 0
c gate 421 400 -420 0
400 -421 0
-420 -421 0
-400 420 421 0
c gate 422 397 -421 0
397 -422 0
-421 -422 0
-397 421 422 0
c gate 423 -394 -422 0
-394 -423 0
-422 -423 0
394 422 423 0
c gate 424 397 400 0
397 -424 0
400 -424 0
-397 -400 424 0
c gate 425 403 407 0
403 -425 0
407 -425 0
-403 -407 425 0
c gate 426 424 425 0
424 -426 0
425 -426 0
-424 -425 426 0
c gate 427 -49 -153 0
-49 -427 0
-153 -427 0
49 153 427 0
c gate 428 -394 -404 0
-394 -428 0
-404 -428 0
394 404 428 0
c gate 429 -427 428 0
-427 -429 0
428 -429 0
427 -428 429 0
c gate 430 412 429 0
412 -430 0
429 -430 0
-412 -429 430 0
c gate 431 417 430 0
417 -431 0
430 -431 0
-417 -430 431 0
c gate 432 426 431 0
426 -432 0
431 -432 0
-426 -431 432 0
c gate 433 -40 -144 0
-40 -433 0
-144 -433 0
40 144 433 0
c gate 434 38 142 0
38 -434 0
142 -434 0
-38 -142 434 0
c gate 435 37 141 0
37 -435 0
141 -435 0
-37 -141 435 0
c gate 436 -434 -435 0
-434 -436 0
-435 -436 0
434 435 436 0
c gate 437 -39 -143 0
-39 -437 0
-143 -437 0
39 143 437 0
c gate 438 -38 -142 0
-38 -438 0
-142 -438 0
38 142 438 0
c gate 439 -437 -438 0
-437 -439 0
-438 -439 0
437 438 439 0
c gate 440 -436 439 0
-436 -440 0
439 -440 0
436 -439 440 0
c gate 441 39 143 0
39 -441 0
143 -441 0
-39 -143 441 0
c gate 442 40 144 0
40 -442 0
144 -442 0
-40 -144 442 0
c gate 443 -441 -442 0
-441 -443 0
-442 -443 0
441 442 443 0
c gate 444 -440 443 0
-440 -444 0
443 -444 0
440 -443 444 0
c gate 445 -433 -444 0
-433 -445 0
-444 -445 0
433 444 445 0
c gate 446 -37 -141 0
-37 -446 0
-141 -446 0
37 141 446 0
c gate 447 -433 -446 0
-433 -447 0
-446 -447 0
433 446 447 0
c gate 448 439 447 0
439 -448 0
447 -448 0
-439 -447 448 0
c gate 449 444 448 0
444 -449 0
448 -449 0
-444 -448 449 0
c gate 450 36 140 0
36 -450 0
140 -450 0
-36 -140 450 0
c gate 451 -36 -140 0
-36 -451 0
-140 -451 0
36 140 451 0
c gate 452 35 139 0
35 -452 0
139 -452 0
-35 -139 452 0
c gate 453 -451 452 0
-451 -453 0
452 -453 0
451 -452 453 0
c gate 454 -450 -453 0
-450 -454 0
-453 -454 0
450 453 454 0
c gate 455 -35 -139 0
-35 -455 0
-139 -455 0
35 139 455 0
c gate 456 -451 -455 0
-451 -456 0
-455 -456 0
451 455 456 0
c gate 457 454 456 0
454 -457 0
456 -457 0
-454 -456 457 0
c gate 458 34 138 0
34 -458 0
138 -458 0
-34 -138 458 0
c gate 459 33 137 0
33 -459 0
137 -459 0
-33 -137 459 0
c gate 460 -458 -459 0
-458 -460 0
-459 -460 0
458 459 460 0
c gate 461 -34 -138 0
-34 -461 0
-138 -461 0
34 138 461 0
c gate 462 -460 -461 0
-460 -462 0
-461 -462 0
460 461 462 0
c gate 463 457 462 0
457 -463 0
462 -463 0
-457 -462 463 0
c gate 464 454 -463 0
454 -464 0
-463 -464 0
-454 463 464 0
c gate 465 449 -464 0
449 -465 0
-464 -465 0
-449 464 465 0
c gate 466 -445 -465 0
-445 -466 0
-465 -466 0
445 465 466 0
c gate 467 -33 -137 0
-33 -467 0
-137 -467 0
33 137 467 0
c gate 468 -461 -467 0
-461 -468 0
-467 -468 0
461 467 468 0
c gate 469 460 468 0
460 -469 0
468 -469 0
-460 -468 469 0
c gate 470 457 469 0
457 -470 0
469 -470 0
-457 -469 470 0
c gate 471 449 470 0
449 -471 0
470 -471 0
-449 -470 471 0
c gate 472 -32 -136 0
-32 -472 0
-136 -472 0
32 136 472 0
c gate 473 32 136 0
32 -473 0
136 -473 0
-32 -136 473 0
c gate 474 31 135 0
31 -474 0
135 -474 0
-31 -135 474 0
c gate 475 -473 -474 0
-473 -475 0
-474 -475 0
473 474 475 0
c gate 476 -31 -135 0
-31 -476 0
-135 -476 0
31 135 476 0
c gate 477 -30 -134 0
-30 -477 0
-134 -477 0
30 134 477 0
c gate 478 -476 -477 0
-476 -478 0
-477 -478 0
476 477 478 0
c gate 479 30 134 0
30 -479 0
134 -479 0
-30 -134 479 0
c gate 480 29 133 0
29 -480 0
133 -480 0
-29 -133 480 0
c gate 481 -479 -480 0
-479 -481 0
-480 -481 0
479 480 481 0
c gate 482 -29 -133 0
-29 -482 0
-133 -482 0
29 133 482 0
c gate 483 28 132 0
28 -483 0
132 -483 0
-28 -132 483 0
c gate 484 -28 -132 0
-28 -484 0
-132 -484 0
28 132 484 0
c gate 485 27 -484 0
27 -485 0
-484 -485 0
-27 484 485 0
c gate 486 131 485 0
131 -486 0
485 -486 0
-131 -485 486 0
c gate 487 -483 -486 0
-483 -487 0
-486 -487 0
483 486 487 0
c gate 488 131 -484 0
131 -488 0
-484 -488 0
-131 484 488 0
c gate 489 -485 -488 0
-485 -489 0
-488 -489 0
485 488 489 0
c gate 490 25 129 0
25 -490 0
129 -490 0
-25 -129 490 0
c gate 491 26 130 0
26 -491 0
130 -491 0
-26 -130 491 0
c gate 492 -490 -491 0
-490 -492 0
-491 -492 0
490 491 492 0
c gate 493 -26 -130 0
-26 -493 0
-130 -493 0
26 130 493 0
c gate 494 -492 -493 0
-492 -494 0
-493 -494 0
492 493 494 0
c gate 495 -489 494 0
-489 -495 0
494 -495 0
489 -494 495 0
c gate 496 487 -495 0
487 -496 0
-495 -496 0
-487 495 496 0
c gate 497 -482 -496 0
-482 -497 0
-496 -497 0
482 496 497 0
c gate 498 481 -497 0
481 -498 0
-497 -498 0
-481 497 498 0
c gate 499 478 -498 0
478 -499 0
-498 -499 0
-478 498 499 0
c gate 500 475 -499 0
475 -500 0
-499 -500 0
-475 499 500 0
c gate 501 -472 -500 0
-472 -501 0
-500 -501 0
472 500 501 0
c gate 502 475 492 0
475 -502 0
492 -502 0
-475 -492 502 0
c gate 503 478 481 0
478 -503 0
481 -503 0
-478 -481 503 0
c gate 504 502 503 0
502 -504 0
503 -504 0
-502 -503 504 0
c gate 505 -482 -493 0
-482 -505 0
-493 -505 0
482 493 505 0
c gate 506 -25 -129 0
-25 -506 0
-129 -506 0
25 129 506 0
c gate 507 -472 -506 0
-472 -507 0
-506 -507 0
472 506 507 0
c gate 508 505 507 0
505 -508 0
507 -508 0
-505 -507 508 0
c gate 509 -489 508 0
-489 -509 0
508 -509 0
489 -508 509 0
c gate 510 504 509 0
504 -510 0
509 -510 0
-504 -509 510 0
c gate 511 487 510 0
487 -511 0
510 -511 0
-487 -510 511 0
c gate 512 2 106 0
2 -512 0
106 -512 0
-2 -106 512 0
c gate 513 1 105 0
1 -513 0
105 -513 0
-1 -105 513 0
c gate 514 -512 -513 0
-512 -514 0
-513 -514 0
512 513 514 0
c gate 515 -3 -107 0
-3 -515 0
-107 -515 0
3 107 515 0
c gate 516 -2 -106 0
-2 -516 0
-106 -516 0
2 106 516 0
c gate 517 -515 -516 0
-515 -517 0
-516 -517 0
515 516 517 0
c gate 518 -514 517 0
-514 -518 0
517 -518 0
514 -517 518 0
c gate 519 4 108 0
4 -519 0
108 -519 0
-4 -108 519 0
c gate 520 3 107 0
3 -520 0
107 -520 0
-3 -107 520 0
c gate 521 -519 -520 0
-519 -521 0
-520 -521 0
519 520 521 0
c gate 522 -518 521 0
-518 -522 0
521 -522 0
518 -521 522 0
c gate 523 -4 -108 0
-4 -523 0
-108 -523 0
4 108 523 0
c gate 524 -5 -109 0
-5 -524 0
-109 -524 0
5 109 524 0
c gate 525 -523 -524 0
-523 -525 0
-524 -525 0
523 524 525 0
c gate 526 -522 525 0
-522 -526 0
525 -526 0
522 -525 526 0
c gate 527 6 110 0
6 -527 0
110 -527 0
-6 -110 527 0
c gate 528 5 109 0
5 -528 0
109 -528 0
-5 -109 528 0
c gate 529 -527 -528 0
-527 -529 0
-528 -529 0
527 528 529 0
c gate 530 -526 529 0
-526 -530 0
529 -530 0
526 -529 530 0
c gate 531 -7 -111 0
-7 -531 0
-111 -531 0
7 111 531 0
c gate 532 -6 -110 0
-6 -532 0
-110 -532 0
6 110 532 0
c gate 533 -531 -532 0
-531 -533 0
-532 -533 0
531 532 533 0
c gate 534 -530 533 0
-530 -534 0
533 -534 0
530 -533 534 0
c gate 535 8 112 0
8 -535 0
112 -535 0
-8 -112 535 0
c gate 536 7 111 0
7 -536 0
111 -536 0
-7 -111 536 0
c gate 537 -535 -536 0
-535 -537 0
-536 -537 0
535 536 537 0
c gate 538 -534 537 0
-534 -538 0
537 -538 0
534 -537 538 0
c gate 539 -9 -113 0
-9 -539 0
-113 -539 0
9 113 539 0
c gate 540 -8 -112 0
-8 -540 0
-112 -540 0
8 112 540 0
c gate 541 -539 -540 0
-539 -541 0
-540 -541 0
539 540 541 0
c gate 542 -538 541 0
-538 -542 0
541 -542 0
538 -541 542 0
c gate 543 10 114 0
10 -543 0
114 -543 0
-10 -114 543 0
c gate 544 9 113 0
9 -544 0
113 -544 0
-9 -113 544 0
c gate 545 -543 -544 0
-543 -545 0
-544 -545 0
543 544 545 0
c gate 546 -542 545 0
-542 -546 0
545 -546 0
542 -545 546 0
c gate 547 -10 -114 0
-10 -547 0
-114 -547 0
10 114 547 0
c gate 548 -12 -116 0
-12 -548 0
-116 -548 0
12 116 548 0
c gate 549 -11 -115 0
-11 -549 0
-115 -549 0
11 115 549 0
c gate 550 -548 -549 0
-548 -550 0
-549 -550 0
548 549 550 0
c gate 551 -547 550 0
-547 -551 0
550 -551 0
547 -550 551 0
c gate 552 -546 551 0
-546 -552 0
551 -552 0
546 -551 552 0
c gate 553 12 116 0
12 -553 0
116 -553 0
-12 -116 553 0
c gate 554 11 115 0
11 -554 0
115 -554 0
-11 -115 554 0
c gate 555 -548 554 0
-548 -555 0
554 -555 0
548 -554 555 0
c gate 556 -553 -555 0
-553 -556 0
-555 -556 0
553 555 556 0
c gate 557 -552 556 0
-552 -557 0
556 -557 0
552 -556 557 0
c gate 558 -14 -118 0
-14 -558 0
-118 -558 0
14 118 558 0
c gate 559 -15 -119 0
-15 -559 0
-119 -559 0
15 119 559 0
c gate 560 -558 -559 0
-558 -560 0
-559 -560 0
558 559 560 0
c gate 561 14 118 0
14 -561 0
118 -561 0
-14 -118 561 0
c gate 562 13 117 0
13 -562 0
117 -562 0
-13 -117 562 0
c gate 563 -561 -562 0
-561 -563 0
-562 -563 0
561 562 563 0
c gate 564 -13 -117 0
-13 -564 0
-117 -564 0
13 117 564 0
c gate 565 563 -564 0
563 -565 0
-564 -565 0
-563 564 565 0
c gate 566 560 565 0
560 -566 0
565 -566 0
-560 -565 566 0
c gate 567 -557 566 0
-557 -567 0
566 -567 0
557 -566 567 0
c gate 568 560 -563 0
560 -568 0
-563 -568 0
-560 563 568 0
c gate 569 15 119 0
15 -569 0
119 -569 0
-15 -119 569 0
c gate 570 16 120 0
16 -570 0
120 -570 0
-16 -120 570 0
c gate 571 -569 -570 0
-569 -571 0
-570 -571 0
569 570 571 0
c gate 572 -568 571 0
-568 -572 0
571 -572 0
568 -571 572 0
c gate 573 -567 572 0
-567 -573 0
572 -573 0
567 -572 573 0
c gate 574 -20 -124 0
-20 -574 0
-124 -574 0
20 124 574 0
c gate 575 19 -574 0
19 -575 0
-574 -575 0
-19 574 575 0
c gate 576 123 -574 0
123 -576 0
-574 -576 0
-123 574 576 0
c gate 577 -575 -576 0
-575 -577 0
-576 -577 0
575 576 577 0
c gate 578 -17 -121 0
-17 -578 0
-121 -578 0
17 121 578 0
c gate 579 -16 -120 0
-16 -579 0
-120 -579 0
16 120 579 0
c gate 580 -21 -125 0
-21 -580 0
-125 -580 0
21 125 580 0
c gate 581 -579 -580 0
-579 -581 0
-580 -581 0
579 580 581 0
c gate 582 -578 581 0
-578 -582 0
581 -582 0
578 -581 582 0
c gate 583 22 126 0
22 -583 0
126 -583 0
-22 -126 583 0
c gate 584 21 125 0
21 -584 0
125 -584 0
-21 -125 584 0
c gate 585 -583 -584 0
-583 -585 0
-584 -585 0
583 584 585 0
c gate 586 -24 -128 0
-24 -586 0
-128 -586 0
24 128 586 0
c gate 587 -18 -122 0
-18 -587 0
-122 -587 0
18 122 587 0
c gate 588 -586 -587 0
-586 -588 0
-587 -588 0
586 587 588 0
c gate 589 585 588 0
585 -589 0
588 -589 0
-585 -588 589 0
c gate 590 582 589 0
582 -590 0
589 -590 0
-582 -589 590 0
c gate 591 -577 590 0
-577 -591 0
590 -591 0
577 -590 591 0
c gate 592 20 124 0
20 -592 0
124 -592 0
-20 -124 592 0
c gate 593 123 575 0
123 -593 0
575 -593 0
-123 -575 593 0
c gate 594 -592 -593 0
-592 -594 0
-593 -594 0
592 593 594 0
c gate 595 17 121 0
17 -595 0
121 -595 0
-17 -121 595 0
c gate 596 18 122 0
18 -596 0
122 -596 0
-18 -122 596 0
c gate 597 -595 -596 0
-595 -597 0
-596 -597 0
595 596 597 0
c gate 598 -23 -127 0
-23 -598 0
-127 -598 0
23 127 598 0
c gate 599 -22 -126 0
-22 -599 0
-126 -599 0
22 126 599 0
c gate 600 -598 -599 0
-598 -600 0
-599 -600 0
598 599 600 0
c gate 601 24 128 0
24 -601 0
128 -601 0
-24 -128 601 0
c gate 602 23 127 0
23 -602 0
127 -602 0
-23 -127 602 0
c gate 603 -601 -602 0
-601 -603 0
-602 -603 0
601 602 603 0
c gate 604 600 603 0
600 -604 0
603 -604 0
-600 -603 604 0
c gate 605 597 604 0
597 -605 0
604 -605 0
-597 -604 605 0
c gate 606 594 605 0
594 -606 0
605 -606 0
-594 -605 606 0
c gate 607 591 606 0
591 -607 0
606 -607 0
-591 -606 607 0
c gate 608 -573 607 0
-573 -608 0
607 -608 0
573 -607 608 0
c gate 609 -587 -597 0
-587 -609 0
-597 -609 0
587 597 609 0
c gate 610 -577 609 0
-577 -610 0
609 -610 0
577 -609 610 0
c gate 611 594 -610 0
594 -611 0
-610 -611 0
-594 610 611 0
c gate 612 -580 -611 0
-580 -612 0
-611 -612 0
580 611 612 0
c gate 613 585 -612 0
585 -613 0
-612 -613 0
-585 612 613 0
c gate 614 600 -613 0
600 -614 0
-613 -614 0
-600 613 614 0
c gate 615 603 -614 0
603 -615 0
-614 -615 0
-603 614 615 0
c gate 616 -586 -615 0
-586 -616 0
-615 -616 0
586 615 616 0
c gate 617 -608 -616 0
-608 -617 0
-616 -617 0
608 616 617 0
c gate 618 511 -617 0
511 -618 0
-617 -618 0
-511 617 618 0
c gate 619 -501 -618 0
-501 -619 0
-618 -619 0
501 618 619 0
c gate 620 471 -619 0
471 -620 0
-619 -620 0
-471 619 620 0
c gate 621 466 -620 0
466 -621 0
-620 -621 0
-466 620 621 0
c gate 622 48 152 0
48 -622 0
152 -622 0
-48 -152 622 0
c gate 623 -48 -152 0
-48 -623 0
-152 -623 0
48 152 623 0
c gate 624 47 151 0
47 -624 0
151 -624 0
-47 -151 624 0
c gate 625 -623 624 0
-623 -625 0
624 -625 0
623 -624 625 0
c gate 626 -622 -625 0
-622 -626 0
-625 -626 0
622 625 626 0
c gate 627 -46 -150 0
-46 -627 0
-150 -627 0
46 150 627 0
c gate 628 -47 -151 0
-47 -628 0
-151 -628 0
47 151 628 0
c gate 629 -623 -628 0
-623 -629 0
-628 -629 0
623 628 629 0
c gate 630 -627 629 0
-627 -630 0
629 -630 0
627 -629 630 0
c gate 631 626 630 0
626 -631 0
630 -631 0
-626 -630 631 0
c gate 632 -45 -149 0
-45 -632 0
-149 -632 0
45 149 632 0
c gate 633 46 150 0
46 -633 0
150 -633 0
-46 -150 633 0
c gate 634 45 149 0
45 -634 0
149 -634 0
-45 -149 634 0
c gate 635 -633 -634 0
-633 -635 0
-634 -635 0
633 634 635 0
c gate 636 -632 635 0
-632 -636 0
635 -636 0
632 -635 636 0
c gate 637 631 636 0
631 -637 0
636 -637 0
-631 -636 637 0
c gate 638 44 148 0
44 -638 0
148 -638 0
-44 -148 638 0
c gate 639 -44 -148 0
-44 -639 0
-148 -639 0
44 148 639 0
c gate 640 43 147 0
43 -640 0
147 -640 0
-43 -147 640 0
c gate 641 -639 640 0
-639 -641 0
640 -641 0
639 -640 641 0
c gate 642 -638 -641 0
-638 -642 0
-641 -642 0
638 641 642 0
c gate 643 -42 -146 0
-42 -643 0
-146 -643 0
42 146 643 0
c gate 644 -43 -147 0
-43 -644 0
-147 -644 0
43 147 644 0
c gate 645 -639 -644 0
-639 -645 0
-644 -645 0
639 644 645 0
c gate 646 -643 645 0
-643 -646 0
645 -646 0
643 -645 646 0
c gate 647 642 646 0
642 -647 0
646 -647 0
-642 -646 647 0
c gate 648 -41 -145 0
-41 -648 0
-145 -648 0
41 145 648 0
c gate 649 42 146 0
42 -649 0
146 -649 0
-42 -146 649 0
c gate 650 41 145 0
41 -650 0
145 -650 0
-41 -145 650 0
c gate 651 -649 -650 0
-649 -651 0
-650 -651 0
649 650 651 0
c gate 652 -648 651 0
-648 -652 0
651 -652 0
648 -651 652 0
c gate 653 647 652 0
647 -653 0
652 -653 0
-647 -652 653 0
c gate 654 637 653 0
637 -654 0
653 -654 0
-637 -653 654 0
c gate 655 -621 654 0
-621 -655 0
654 -655 0
621 -654 655 0
c gate 656 647 -651 0
647 -656 0
-651 -656 0
-647 651 656 0
c gate 657 642 -656 0
642 -657 0
-656 -657 0
-642 656 657 0
c gate 658 637 -657 0
637 -658 0
-657 -658 0
-637 657 658 0
c gate 659 631 -635 0
631 -659 0
-635 -659 0
-631 635 659 0
c gate 660 626 -659 0
626 -660 0
-659 -660 0
-626 659 660 0
c gate 661 -658 660 0
-658 -661 0
660 -661 0
658 -660 661 0
c gate 662 -655 661 0
-655 -662 0
661 -662 0
655 -661 662 0
c gate 663 432 -662 0
432 -663 0
-662 -663 0
-432 662 663 0
c gate 664 -423 -663 0
-423 -664 0
-663 -664 0
423 663 664 0
c gate 665 -57 -161 0
-57 -665 0
-161 -665 0
57 161 665 0
c gate 666 366 -665 0
366 -666 0
-665 -666 0
-366 665 666 0
c gate 667 371 666 0
371 -667 0
666 -667 0
-371 -666 667 0
c gate 668 388 667 0
388 -668 0
667 -668 0
-388 -667 668 0
c gate 669 -664 668 0
-664 -669 0
668 -669 0
664 -668 669 0
c gate 670 393 -669 0
393 -670 0
-669 -670 0
-393 669 670 0
c gate 671 -65 -169 0
-65 -671 0
-169 -671 0
65 169 671 0
c gate 672 220 -671 0
220 -672 0
-671 -672 0
-220 671 672 0
c gate 673 217 672 0
217 -673 0
672 -673 0
-217 -672 673 0
c gate 674 228 673 0
228 -674 0
673 -674 0
-228 -673 674 0
c gate 675 -237 -240 0
-237 -675 0
-240 -675 0
237 240 675 0
c gate 676 214 675 0
214 -676 0
675 -676 0
-214 -675 676 0
c gate 677 235 676 0
235 -677 0
676 -677 0
-235 -676 677 0
c gate 678 674 677 0
674 -678 0
677 -678 0
-674 -677 678 0
c gate 679 -670 678 0
-670 -679 0
678 -679 0
670 -678 679 0
c gate 680 211 -241 0
211 -680 0
-241 -680 0
-211 241 680 0
c gate 681 249 680 0
249 -681 0
680 -681 0
-249 -680 681 0
c gate 682 254 681 0
254 -682 0
681 -682 0
-254 -681 682 0
c gate 683 270 682 0
270 -683 0
682 -683 0
-270 -682 683 0
c gate 684 307 683 0
307 -684 0
683 -684 0
-307 -683 684 0
c gate 685 349 684 0
349 -685 0
684 -685 0
-349 -684 685 0
c gate 686 679 685 0
679 -686 0
685 -686 0
-679 -685 686 0
c gate 687 -358 -686 0
-358 -687 0
-686 -687 0
358 686 687 0
c gate 688 -350 687 0
-350 -688 0
687 -688 0
350 -687 688 0
c gate 689 102 206 0
102 -689 0
206 -689 0
-102 -206 689 0
c gate 690 -101 -205 0
-101 -690 0
-205 -690 0
101 205 690 0
c gate 691 -102 -206 0
-102 -691 0
-206 -691 0
102 206 691 0
c gate 692 -690 -691 0
-690 -692 0
-691 -692 0
690 691 692 0
c gate 693 -100 -204 0
-100 -693 0
-204 -693 0
100 204 693 0
c gate 694 99 203 0
99 -694 0
203 -694 0
-99 -203 694 0
c gate 695 -97 -201 0
-97 -695 0
-201 -695 0
97 201 695 0
c gate 696 358 -695 0
358 -696 0
-695 -696 0
-358 695 696 0
c gate 697 97 201 0
97 -697 0
201 -697 0
-97 -201 697 0
c gate 698 98 202 0
98 -698 0
202 -698 0
-98 -202 698 0
c gate 699 -697 -698 0
-697 -699 0
-698 -699 0
697 698 699 0
c gate 700 -696 699 0
-696 -700 0
699 -700 0
696 -699 700 0
c gate 701 -98 -202 0
-98 -701 0
-202 -701 0
98 202 701 0
c gate 702 -99 -203 0
-99 -702 0
-203 -702 0
99 203 702 0
c gate 703 -701 -702 0
-701 -703 0
-702 -703 0
701 702 703 0
c gate 704 -700 703 0
-700 -704 0
703 -704 0
700 -703 704 0
c gate 705 -694 -704 0
-694 -705 0
-704 -705 0
694 704 705 0
c gate 706 -693 -705 0
-693 -706 0
-705 -706 0
693 705 706 0
c gate 707 101 205 0
101 -707 0
205 -707 0
-101 -205 707 0
c gate 708 100 204 0
100 -708 0
204 -708 0
-100 -204 708 0
c gate 709 -707 -708 0
-707 -709 0
-708 -709 0
707 708 709 0
c gate 710 -706 709 0
-706 -710 0
709 -710 0
706 -709 710 0
c gate 711 692 -710 0
692 -711 0
-710 -711 0
-692 710 711 0
c gate 712 -689 -711 0
-689 -712 0
-711 -712 0
689 711 712 0
c gate 713 699 703 0
699 -713 0
703 -713 0
-699 -703 713 0
c gate 714 103 -207 0
103 -714 0
-207 -714 0
-103 207 714 0
c gate 715 -103 207 0
-103 -715 0
207 -715 0
103 -207 715 0
c gate 716 -714 -715 0
-714 -716 0
-715 -716 0
714 715 716 0
c gate 717 709 -716 0
709 -717 0
-716 -717 0
-709 716 717 0
c gate 718 713 717 0
713 -718 0
717 -718 0
-713 -717 718 0
c gate 719 -694 -695 0
-694 -719 0
-695 -719 0
694 695 719 0
c gate 720 104 208 0
104 -720 0
208 -720 0
-104 -208 720 0
c gate 721 -104 -208 0
-104 -721 0
-208 -721 0
104 208 721 0
c gate 722 -720 -721 0
-720 -722 0
-721 -722 0
720 721 722 0
c gate 723 719 722 0
719 -723 0
722 -723 0
-719 -722 723 0
c gate 724 -689 -693 0
-689 -724 0
-693 -724 0
689 693 724 0
c gate 725 692 724 0
692 -725 0
724 -725 0
-692 -724 725 0
c gate 726 723 725 0
723 -726 0
725 -726 0
-723 -725 726 0
c gate 727 718 726 0
718 -727 0
726 -727 0
-718 -726 727 0
c gate 728 -712 727 0
-712 -728 0
727 -728 0
712 -727 728 0
c gate 729 -688 728 0
-688 -729 0
728 -729 0
688 -728 729 0
c PO
729 0
